364,-30
317,142
361,243
366,177
448,173
628,379
655,419
765,322
804,575
681,616
601,446
267,341
542,-21
436,-75
847,-107
838,-79
620,21
727,264
738,388
1041,406
921,528
814,338
899,248
830,112
792,64
1028,229
1184,327
956,131
893,618
625,761
552,805
639,672
575,460
667,494
817,673
977,702
681,436
755,178
947,213
